JulietBench/Juliet_Based_Patch_Bench/linux/CWE-190-Integer-Overflow-or-Wraparound/CVE_2018_6927_fbe0e839d1e22d88810f3ee3e2f1479be4c0aa4a/Resultfutex_requeue_Snippet_patch2EQ.smt2
; benchmark generated from python API
(set-info :status unknown)
(declare-fun R () (_ BitVec 32))
(declare-fun rdx () (_ BitVec 64))
(declare-fun rsi () (_ BitVec 64))
(declare-fun rdi () (_ BitVec 64))
(assert
 (let (($x90 (= (_ bv10 32) R)))
 (let ((?x10 ((_ extract 31 0) rdx)))
 (let (($x14 (= (_ bv0 32) ?x10)))
 (let (($x92 (and $x14 $x90)))
 (let (($x40 (and (distinct (_ bv0 32) ?x10) true)))
 (let (($x91 (and $x40 $x90)))
 (let (($x93 (or $x91 $x92)))
 (let ((?x8 ((_ extract 31 0) rsi)))
 (let (($x85 (= R ?x8)))
 (let (($x87 (and $x14 $x85)))
 (let ((?x6 ((_ extract 31 0) rdi)))
 (let (($x55 (= (_ bv1 32) ?x6)))
 (let (($x86 (and $x55 $x40 $x85)))
 (let (($x83 (= (_ bv4294967274 32) R)))
 (let (($x63 (and (distinct (_ bv1 32) ?x6) true)))
 (let (($x84 (and $x63 $x40 $x83)))
 (let (($x88 (or $x84 $x86 $x87)))
 (and $x88 $x93)))))))))))))))))))
(check-sat)
